11
0 13 92 61 27 5 76 85 89 7 96 
83 0 75 7 89 38 62 6 3 20 89 
35 88 0 51 7 16 98 18 94 99 12 
34 94 97 0 3 53 50 4 58 59 20 
99 92 3 54 0 6 59 65 7 65 77 
69 10 98 6 66 0 19 45 77 76 28 
27 48 82 2 68 69 0 57 80 5 71 
97 30 82 16 5 58 57 0 60 57 3 
43 33 21 91 15 29 9 19 0 84 53 
23 96 26 15 68 64 64 74 79 0 13 
12 33 15 73 91 21 19 51 23 55 0 
